% demand
num_movements = 24;
loading_factor = [1200, 800, 1550, 1600, 900, 800, 1750, 1050, 900, 1550, 1100, 800, 1250, 1350, 1200, 1100, 2000, 1300, 1800, 1600, 950, 2000, 1150, 1750];
pickup_time = [0, 0, 0, 0, 0, 1, 1, 1, 1, 3, 5, 5, 6, 7, 7, 7, 7, 9, 9, 9, 9, 10, 10, 10];
delivery_time = [1, 1, 1, 2, 4, 4, 7, 4, 4, 4, 7, 9, 7, 10, 9, 9, 8, 10, 10, 12, 10, 12, 12, 12];

% transporter definition
total_capacity = 7000;
num_decks = 3;
capacity = [3000, 1000, 3000];

% ways out of decks
num_ways_out = 1;
paths_out = array3d(decks, ways_out, decks, [
% ways out of deck d1
2, 3, 0, 

% ways out of deck d2
3, 0, 0, 

% ways out of deck d3
0, 0, 0,	

]);

